* SDPA sparse format data
* File name = Bex2_1_2.dat-s
* mDim =  65, nBlock = 17
* size of bVect = 1 *  65
* size of sparseMatrix =  551 * 5
 65
 17
-52  4  6  6  4  4  6  4  6  6  4  4  6  4  6  6  4 
  -0.0525000000   -0.0375000000   -0.0175000000   -0.0125000000   -0.0075000000   -1.0000000000   -0.0025000000    0.0000000000    0.0000000000    0.0000000000    0.0000000000    0.0000000000   -0.0025000000    0.0000000000    0.0000000000    0.0000000000   -0.0025000000    0.0000000000    0.0000000000    0.0000000000   -0.0025000000    0.0000000000   -0.0025000000    0.0000000000    0.0000000000    0.0000000000    0.0000000000    0.0000000000    0.0000000000    0.0000000000    0.0000000000    0.0000000000    0.0000000000    0.0000000000    0.0000000000    0.0000000000    0.0000000000    0.0000000000    0.0000000000    0.0000000000    0.0000000000    0.0000000000    0.0000000000    0.0000000000    0.0000000000    0.0000000000    0.0000000000    0.0000000000    0.0000000000    0.0000000000    0.0000000000    0.0000000000    0.0000000000    0.0000000000    0.0000000000    0.0000000000    0.0000000000    0.0000000000    0.0000000000    0.0000000000    0.0000000000    0.0000000000    0.0000000000    0.0000000000    0.0000000000 
  8   1   1   1    1.0000000000
  9   1   2   2    1.0000000000
 10   1   3   3    1.0000000000
 11   1   4   4    1.0000000000
 12   1   5   5    1.0000000000
 14   1   6   6    1.0000000000
 15   1   7   7    1.0000000000
 16   1   8   8    1.0000000000
 18   1   9   9    1.0000000000
 19   1  10  10    1.0000000000
 20   1  11  11    1.0000000000
 22   1  12  12    1.0000000000
 31   1  13  13    1.0000000000
 32   1  14  14    1.0000000000
 33   1  15  15    1.0000000000
 34   1  16  16    1.0000000000
 36   1  17  17    1.0000000000
 37   1  18  18    1.0000000000
 38   1  19  19    1.0000000000
 39   1  20  20    1.0000000000
 40   1  21  21    1.0000000000
 41   1  22  22    1.0000000000
 44   1  23  23    1.0000000000
 48   1  24  24    1.0000000000
 49   1  25  25    1.0000000000
 51   1  26  26    1.0000000000
 57   1  27  27    1.0000000000
 58   1  28  28    1.0000000000
 59   1  29  29    1.0000000000
  7   1  30  30   -1.0000000000
  0   1  30  30   -1.0000000000
 13   1  31  31   -1.0000000000
  0   1  31  31   -1.0000000000
 17   1  32  32   -1.0000000000
  0   1  32  32   -1.0000000000
 21   1  33  33   -1.0000000000
  0   1  33  33   -1.0000000000
 23   1  34  34   -1.0000000000
  0   1  34  34   -1.0000000000
 24   1  35  35   -1.0000000000
  0   1  35  35   -1.0000000000
 31   1  36  36   -1.0000000000
  0   1  36  36   -1.0000000000
 32   1  37  37   -1.0000000000
  0   1  37  37   -1.0000000000
 33   1  38  38   -1.0000000000
  0   1  38  38   -1.0000000000
 34   1  39  39   -1.0000000000
  0   1  39  39   -1.0000000000
 36   1  40  40   -1.0000000000
  0   1  40  40   -1.0000000000
 37   1  41  41   -1.0000000000
  0   1  41  41   -1.0000000000
 38   1  42  42   -1.0000000000
  0   1  42  42   -1.0000000000
 39   1  43  43   -1.0000000000
  0   1  43  43   -1.0000000000
 40   1  44  44   -1.0000000000
  0   1  44  44   -1.0000000000
 41   1  45  45   -1.0000000000
  0   1  45  45   -1.0000000000
 44   1  46  46   -1.0000000000
  0   1  46  46   -1.0000000000
 48   1  47  47   -1.0000000000
  0   1  47  47   -1.0000000000
 49   1  48  48   -1.0000000000
  0   1  48  48   -1.0000000000
 51   1  49  49   -1.0000000000
  0   1  49  49   -1.0000000000
 57   1  50  50   -1.0000000000
  0   1  50  50   -1.0000000000
 58   1  51  51   -1.0000000000
  0   1  51  51   -1.0000000000
 59   1  52  52   -1.0000000000
  0   1  52  52   -1.0000000000
  0   2   1   1   -1.0000000000
  1   2   1   2    1.0000000000
  3   2   1   3    1.0000000000
  6   2   1   4    1.0000000000
  7   2   2   2    1.0000000000
  9   2   2   3    1.0000000000
 12   2   2   4    1.0000000000
 17   2   3   3    1.0000000000
 20   2   3   4    1.0000000000
 24   2   4   4    1.0000000000
  0   3   1   1   -1.0000000000
  1   3   1   2    1.0000000000
  2   3   1   3    1.0000000000
  3   3   1   4    1.0000000000
  4   3   1   5    1.0000000000
  5   3   1   6    1.0000000000
  7   3   2   2    1.0000000000
  8   3   2   3    1.0000000000
  9   3   2   4    1.0000000000
 10   3   2   5    1.0000000000
 11   3   2   6    1.0000000000
 13   3   3   3    1.0000000000
 14   3   3   4    1.0000000000
 15   3   3   5    1.0000000000
 16   3   3   6    1.0000000000
 17   3   4   4    1.0000000000
 18   3   4   5    1.0000000000
 19   3   4   6    1.0000000000
 21   3   5   5    1.0000000000
 22   3   5   6    1.0000000000
 23   3   6   6    1.0000000000
  0   4   1   1   -1.0000000000
  1   4   1   1   -0.9230769231
  2   4   1   1   -0.4615384615
  3   4   1   1   -0.4615384615
  4   4   1   1   -0.3076923077
  5   4   1   1   -0.1538461538
  1   4   1   2    1.0000000000
  7   4   1   2   -0.9230769231
  8   4   1   2   -0.4615384615
  9   4   1   2   -0.4615384615
 10   4   1   2   -0.3076923077
 11   4   1   2   -0.1538461538
  2   4   1   3    1.0000000000
  8   4   1   3   -0.9230769231
 13   4   1   3   -0.4615384615
 14   4   1   3   -0.4615384615
 15   4   1   3   -0.3076923077
 16   4   1   3   -0.1538461538
  3   4   1   4    1.0000000000
  9   4   1   4   -0.9230769231
 14   4   1   4   -0.4615384615
 17   4   1   4   -0.4615384615
 18   4   1   4   -0.3076923077
 19   4   1   4   -0.1538461538
  4   4   1   5    1.0000000000
 10   4   1   5   -0.9230769231
 15   4   1   5   -0.4615384615
 18   4   1   5   -0.4615384615
 21   4   1   5   -0.3076923077
 22   4   1   5   -0.1538461538
  5   4   1   6    1.0000000000
 11   4   1   6   -0.9230769231
 16   4   1   6   -0.4615384615
 19   4   1   6   -0.4615384615
 22   4   1   6   -0.3076923077
 23   4   1   6   -0.1538461538
  7   4   2   2    1.0000000000
 25   4   2   2   -0.9230769231
 26   4   2   2   -0.4615384615
 27   4   2   2   -0.4615384615
 28   4   2   2   -0.3076923077
 29   4   2   2   -0.1538461538
  8   4   2   3    1.0000000000
 26   4   2   3   -0.9230769231
 31   4   2   3   -0.4615384615
 32   4   2   3   -0.4615384615
 33   4   2   3   -0.3076923077
 34   4   2   3   -0.1538461538
  9   4   2   4    1.0000000000
 27   4   2   4   -0.9230769231
 32   4   2   4   -0.4615384615
 35   4   2   4   -0.4615384615
 36   4   2   4   -0.3076923077
 37   4   2   4   -0.1538461538
 10   4   2   5    1.0000000000
 28   4   2   5   -0.9230769231
 33   4   2   5   -0.4615384615
 36   4   2   5   -0.4615384615
 39   4   2   5   -0.3076923077
 40   4   2   5   -0.1538461538
 11   4   2   6    1.0000000000
 29   4   2   6   -0.9230769231
 34   4   2   6   -0.4615384615
 37   4   2   6   -0.4615384615
 40   4   2   6   -0.3076923077
 41   4   2   6   -0.1538461538
 13   4   3   3    1.0000000000
 31   4   3   3   -0.9230769231
 43   4   3   3   -0.4615384615
 44   4   3   3   -0.4615384615
 45   4   3   3   -0.3076923077
 46   4   3   3   -0.1538461538
 14   4   3   4    1.0000000000
 32   4   3   4   -0.9230769231
 44   4   3   4   -0.4615384615
 47   4   3   4   -0.4615384615
 48   4   3   4   -0.3076923077
 49   4   3   4   -0.1538461538
 15   4   3   5    1.0000000000
 33   4   3   5   -0.9230769231
 45   4   3   5   -0.4615384615
 48   4   3   5   -0.4615384615
 50   4   3   5   -0.3076923077
 51   4   3   5   -0.1538461538
 16   4   3   6    1.0000000000
 34   4   3   6   -0.9230769231
 46   4   3   6   -0.4615384615
 49   4   3   6   -0.4615384615
 51   4   3   6   -0.3076923077
 52   4   3   6   -0.1538461538
 17   4   4   4    1.0000000000
 35   4   4   4   -0.9230769231
 47   4   4   4   -0.4615384615
 53   4   4   4   -0.4615384615
 54   4   4   4   -0.3076923077
 55   4   4   4   -0.1538461538
 18   4   4   5    1.0000000000
 36   4   4   5   -0.9230769231
 48   4   4   5   -0.4615384615
 54   4   4   5   -0.4615384615
 57   4   4   5   -0.3076923077
 58   4   4   5   -0.1538461538
 19   4   4   6    1.0000000000
 37   4   4   6   -0.9230769231
 49   4   4   6   -0.4615384615
 55   4   4   6   -0.4615384615
 58   4   4   6   -0.3076923077
 59   4   4   6   -0.1538461538
 21   4   5   5    1.0000000000
 39   4   5   5   -0.9230769231
 50   4   5   5   -0.4615384615
 57   4   5   5   -0.4615384615
 61   4   5   5   -0.3076923077
 62   4   5   5   -0.1538461538
 22   4   5   6    1.0000000000
 40   4   5   6   -0.9230769231
 51   4   5   6   -0.4615384615
 58   4   5   6   -0.4615384615
 62   4   5   6   -0.3076923077
 63   4   5   6   -0.1538461538
 23   4   6   6    1.0000000000
 41   4   6   6   -0.9230769231
 52   4   6   6   -0.4615384615
 59   4   6   6   -0.4615384615
 63   4   6   6   -0.3076923077
 64   4   6   6   -0.1538461538
  0   5   1   1   -1.0000000000
  1   5   1   1   -0.5000000000
  3   5   1   1   -0.5000000000
  6   5   1   1   -1.0000000000
  1   5   1   2    1.0000000000
  7   5   1   2   -0.5000000000
  9   5   1   2   -0.5000000000
 12   5   1   2   -1.0000000000
  3   5   1   3    1.0000000000
  9   5   1   3   -0.5000000000
 17   5   1   3   -0.5000000000
 20   5   1   3   -1.0000000000
  6   5   1   4    1.0000000000
 12   5   1   4   -0.5000000000
 20   5   1   4   -0.5000000000
 24   5   1   4   -1.0000000000
  7   5   2   2    1.0000000000
 25   5   2   2   -0.5000000000
 27   5   2   2   -0.5000000000
 30   5   2   2   -1.0000000000
  9   5   2   3    1.0000000000
 27   5   2   3   -0.5000000000
 35   5   2   3   -0.5000000000
 38   5   2   3   -1.0000000000
 12   5   2   4    1.0000000000
 30   5   2   4   -0.5000000000
 38   5   2   4   -0.5000000000
 42   5   2   4   -1.0000000000
 17   5   3   3    1.0000000000
 35   5   3   3   -0.5000000000
 53   5   3   3   -0.5000000000
 56   5   3   3   -1.0000000000
 20   5   3   4    1.0000000000
 38   5   3   4   -0.5000000000
 56   5   3   4   -0.5000000000
 60   5   3   4   -1.0000000000
 24   5   4   4    1.0000000000
 42   5   4   4   -0.5000000000
 60   5   4   4   -0.5000000000
 65   5   4   4   -1.0000000000
  1   6   1   1    1.0000000000
  7   6   1   2    1.0000000000
  9   6   1   3    1.0000000000
 12   6   1   4    1.0000000000
 25   6   2   2    1.0000000000
 27   6   2   3    1.0000000000
 30   6   2   4    1.0000000000
 35   6   3   3    1.0000000000
 38   6   3   4    1.0000000000
 42   6   4   4    1.0000000000
  2   7   1   1    1.0000000000
  8   7   1   2    1.0000000000
 13   7   1   3    1.0000000000
 14   7   1   4    1.0000000000
 15   7   1   5    1.0000000000
 16   7   1   6    1.0000000000
 26   7   2   2    1.0000000000
 31   7   2   3    1.0000000000
 32   7   2   4    1.0000000000
 33   7   2   5    1.0000000000
 34   7   2   6    1.0000000000
 43   7   3   3    1.0000000000
 44   7   3   4    1.0000000000
 45   7   3   5    1.0000000000
 46   7   3   6    1.0000000000
 47   7   4   4    1.0000000000
 48   7   4   5    1.0000000000
 49   7   4   6    1.0000000000
 50   7   5   5    1.0000000000
 51   7   5   6    1.0000000000
 52   7   6   6    1.0000000000
  3   8   1   1    1.0000000000
  9   8   1   2    1.0000000000
 17   8   1   3    1.0000000000
 20   8   1   4    1.0000000000
 27   8   2   2    1.0000000000
 35   8   2   3    1.0000000000
 38   8   2   4    1.0000000000
 53   8   3   3    1.0000000000
 56   8   3   4    1.0000000000
 60   8   4   4    1.0000000000
  4   9   1   1    1.0000000000
 10   9   1   2    1.0000000000
 15   9   1   3    1.0000000000
 18   9   1   4    1.0000000000
 21   9   1   5    1.0000000000
 22   9   1   6    1.0000000000
 28   9   2   2    1.0000000000
 33   9   2   3    1.0000000000
 36   9   2   4    1.0000000000
 39   9   2   5    1.0000000000
 40   9   2   6    1.0000000000
 45   9   3   3    1.0000000000
 48   9   3   4    1.0000000000
 50   9   3   5    1.0000000000
 51   9   3   6    1.0000000000
 54   9   4   4    1.0000000000
 57   9   4   5    1.0000000000
 58   9   4   6    1.0000000000
 61   9   5   5    1.0000000000
 62   9   5   6    1.0000000000
 63   9   6   6    1.0000000000
  5  10   1   1    1.0000000000
 11  10   1   2    1.0000000000
 16  10   1   3    1.0000000000
 19  10   1   4    1.0000000000
 22  10   1   5    1.0000000000
 23  10   1   6    1.0000000000
 29  10   2   2    1.0000000000
 34  10   2   3    1.0000000000
 37  10   2   4    1.0000000000
 40  10   2   5    1.0000000000
 41  10   2   6    1.0000000000
 46  10   3   3    1.0000000000
 49  10   3   4    1.0000000000
 51  10   3   5    1.0000000000
 52  10   3   6    1.0000000000
 55  10   4   4    1.0000000000
 58  10   4   5    1.0000000000
 59  10   4   6    1.0000000000
 62  10   5   5    1.0000000000
 63  10   5   6    1.0000000000
 64  10   6   6    1.0000000000
  6  11   1   1    1.0000000000
 12  11   1   2    1.0000000000
 20  11   1   3    1.0000000000
 24  11   1   4    1.0000000000
 30  11   2   2    1.0000000000
 38  11   2   3    1.0000000000
 42  11   2   4    1.0000000000
 56  11   3   3    1.0000000000
 60  11   3   4    1.0000000000
 65  11   4   4    1.0000000000
  0  12   1   1   -1.0000000000
  1  12   1   1   -1.0000000000
  1  12   1   2    1.0000000000
  7  12   1   2   -1.0000000000
  3  12   1   3    1.0000000000
  9  12   1   3   -1.0000000000
  6  12   1   4    1.0000000000
 12  12   1   4   -1.0000000000
  7  12   2   2    1.0000000000
 25  12   2   2   -1.0000000000
  9  12   2   3    1.0000000000
 27  12   2   3   -1.0000000000
 12  12   2   4    1.0000000000
 30  12   2   4   -1.0000000000
 17  12   3   3    1.0000000000
 35  12   3   3   -1.0000000000
 20  12   3   4    1.0000000000
 38  12   3   4   -1.0000000000
 24  12   4   4    1.0000000000
 42  12   4   4   -1.0000000000
  0  13   1   1   -1.0000000000
  2  13   1   1   -1.0000000000
  1  13   1   2    1.0000000000
  8  13   1   2   -1.0000000000
  2  13   1   3    1.0000000000
 13  13   1   3   -1.0000000000
  3  13   1   4    1.0000000000
 14  13   1   4   -1.0000000000
  4  13   1   5    1.0000000000
 15  13   1   5   -1.0000000000
  5  13   1   6    1.0000000000
 16  13   1   6   -1.0000000000
  7  13   2   2    1.0000000000
 26  13   2   2   -1.0000000000
  8  13   2   3    1.0000000000
 31  13   2   3   -1.0000000000
  9  13   2   4    1.0000000000
 32  13   2   4   -1.0000000000
 10  13   2   5    1.0000000000
 33  13   2   5   -1.0000000000
 11  13   2   6    1.0000000000
 34  13   2   6   -1.0000000000
 13  13   3   3    1.0000000000
 43  13   3   3   -1.0000000000
 14  13   3   4    1.0000000000
 44  13   3   4   -1.0000000000
 15  13   3   5    1.0000000000
 45  13   3   5   -1.0000000000
 16  13   3   6    1.0000000000
 46  13   3   6   -1.0000000000
 17  13   4   4    1.0000000000
 47  13   4   4   -1.0000000000
 18  13   4   5    1.0000000000
 48  13   4   5   -1.0000000000
 19  13   4   6    1.0000000000
 49  13   4   6   -1.0000000000
 21  13   5   5    1.0000000000
 50  13   5   5   -1.0000000000
 22  13   5   6    1.0000000000
 51  13   5   6   -1.0000000000
 23  13   6   6    1.0000000000
 52  13   6   6   -1.0000000000
  0  14   1   1   -1.0000000000
  3  14   1   1   -1.0000000000
  1  14   1   2    1.0000000000
  9  14   1   2   -1.0000000000
  3  14   1   3    1.0000000000
 17  14   1   3   -1.0000000000
  6  14   1   4    1.0000000000
 20  14   1   4   -1.0000000000
  7  14   2   2    1.0000000000
 27  14   2   2   -1.0000000000
  9  14   2   3    1.0000000000
 35  14   2   3   -1.0000000000
 12  14   2   4    1.0000000000
 38  14   2   4   -1.0000000000
 17  14   3   3    1.0000000000
 53  14   3   3   -1.0000000000
 20  14   3   4    1.0000000000
 56  14   3   4   -1.0000000000
 24  14   4   4    1.0000000000
 60  14   4   4   -1.0000000000
  0  15   1   1   -1.0000000000
  4  15   1   1   -1.0000000000
  1  15   1   2    1.0000000000
 10  15   1   2   -1.0000000000
  2  15   1   3    1.0000000000
 15  15   1   3   -1.0000000000
  3  15   1   4    1.0000000000
 18  15   1   4   -1.0000000000
  4  15   1   5    1.0000000000
 21  15   1   5   -1.0000000000
  5  15   1   6    1.0000000000
 22  15   1   6   -1.0000000000
  7  15   2   2    1.0000000000
 28  15   2   2   -1.0000000000
  8  15   2   3    1.0000000000
 33  15   2   3   -1.0000000000
  9  15   2   4    1.0000000000
 36  15   2   4   -1.0000000000
 10  15   2   5    1.0000000000
 39  15   2   5   -1.0000000000
 11  15   2   6    1.0000000000
 40  15   2   6   -1.0000000000
 13  15   3   3    1.0000000000
 45  15   3   3   -1.0000000000
 14  15   3   4    1.0000000000
 48  15   3   4   -1.0000000000
 15  15   3   5    1.0000000000
 50  15   3   5   -1.0000000000
 16  15   3   6    1.0000000000
 51  15   3   6   -1.0000000000
 17  15   4   4    1.0000000000
 54  15   4   4   -1.0000000000
 18  15   4   5    1.0000000000
 57  15   4   5   -1.0000000000
 19  15   4   6    1.0000000000
 58  15   4   6   -1.0000000000
 21  15   5   5    1.0000000000
 61  15   5   5   -1.0000000000
 22  15   5   6    1.0000000000
 62  15   5   6   -1.0000000000
 23  15   6   6    1.0000000000
 63  15   6   6   -1.0000000000
  0  16   1   1   -1.0000000000
  5  16   1   1   -1.0000000000
  1  16   1   2    1.0000000000
 11  16   1   2   -1.0000000000
  2  16   1   3    1.0000000000
 16  16   1   3   -1.0000000000
  3  16   1   4    1.0000000000
 19  16   1   4   -1.0000000000
  4  16   1   5    1.0000000000
 22  16   1   5   -1.0000000000
  5  16   1   6    1.0000000000
 23  16   1   6   -1.0000000000
  7  16   2   2    1.0000000000
 29  16   2   2   -1.0000000000
  8  16   2   3    1.0000000000
 34  16   2   3   -1.0000000000
  9  16   2   4    1.0000000000
 37  16   2   4   -1.0000000000
 10  16   2   5    1.0000000000
 40  16   2   5   -1.0000000000
 11  16   2   6    1.0000000000
 41  16   2   6   -1.0000000000
 13  16   3   3    1.0000000000
 46  16   3   3   -1.0000000000
 14  16   3   4    1.0000000000
 49  16   3   4   -1.0000000000
 15  16   3   5    1.0000000000
 51  16   3   5   -1.0000000000
 16  16   3   6    1.0000000000
 52  16   3   6   -1.0000000000
 17  16   4   4    1.0000000000
 55  16   4   4   -1.0000000000
 18  16   4   5    1.0000000000
 58  16   4   5   -1.0000000000
 19  16   4   6    1.0000000000
 59  16   4   6   -1.0000000000
 21  16   5   5    1.0000000000
 62  16   5   5   -1.0000000000
 22  16   5   6    1.0000000000
 63  16   5   6   -1.0000000000
 23  16   6   6    1.0000000000
 64  16   6   6   -1.0000000000
  0  17   1   1   -1.0000000000
  6  17   1   1   -1.0000000000
  1  17   1   2    1.0000000000
 12  17   1   2   -1.0000000000
  3  17   1   3    1.0000000000
 20  17   1   3   -1.0000000000
  6  17   1   4    1.0000000000
 24  17   1   4   -1.0000000000
  7  17   2   2    1.0000000000
 30  17   2   2   -1.0000000000
  9  17   2   3    1.0000000000
 38  17   2   3   -1.0000000000
 12  17   2   4    1.0000000000
 42  17   2   4   -1.0000000000
 17  17   3   3    1.0000000000
 56  17   3   3   -1.0000000000
 20  17   3   4    1.0000000000
 60  17   3   4   -1.0000000000
 24  17   4   4    1.0000000000
 65  17   4   4   -1.0000000000
